
Gurobi 10.0.2 (linux64, Python) logging started Fri Aug 11 11:05:31 2023

Set parameter LogFile to value "gurobi.log"

Gurobi 10.0.2 (linux64, Python) logging started Fri Aug 11 14:52:20 2023

Set parameter LogFile to value "gurobi.log"
